SCIP version 5.0.0 [precision: 8 byte] [memory: block] [mode: optimized] [LP solver: NONE] [GitHash: 3bbd232]
Copyright (C) 2002-2017 Konrad-Zuse-Zentrum fuer Informationstechnik Berlin (ZIB)

External codes: 
  Readline EditLine w  GNU library for command line editing (gnu.org/s/readline)
  CppAD 20160000.1     Algorithmic Differentiation of C++ algorithms developed by B. Bell (www.coin-or.org/CppAD)
  ZLIB 1.2.5           General purpose compression library by J. Gailly and M. Adler (zlib.net)
  GMP 6.1.2            GNU Multiple Precision Arithmetic Library developed by T. Granlund (gmplib.org)

user parameter file <scip.set> not found - using default parameters

read problem <../../Split_data/output/biodeg/3/3_sample_biodeg.logreg>
============

File name	:	../../Split_data/output/biodeg/3/3_sample_biodeg.logreg
Problem name 	:	3_sample_biodeg
Number of data	:	844
Number of var	:	41
The given data has linear independence

[dim=1] time: 0.030735
[dim=2] time: 0.062928
[dim=3] time: 0.094068
[dim=4] time: 0.126494
[dim=5] time: 0.158427
[dim=6] time: 0.18742
[dim=7] time: 0.218735
[dim=8] time: 0.23976
[dim=9] time: 0.260619
[dim=10] time: 0.280292
[dim=11] time: 0.307152
[dim=12] time: 0.32548
[dim=13] time: 0.342976
[dim=14] time: 0.363129
[dim=15] time: 0.38406
[dim=16] time: 0.411726
[dim=17] time: 0.431616
[dim=18] time: 0.450922
[dim=19] time: 0.470941
[dim=20] time: 0.490874
[dim=21] time: 0.510079
[dim=22] time: 0.528391
[dim=23] Time of forward = 0.548369sec.
AIC: 522.728
k: 22

[dim=41] time: 0.146948
[dim=40] time: 0.197512
[dim=39] time: 0.25389
[dim=38] time: 0.301473
[dim=37] time: 0.345767
[dim=36] time: 0.38861
[dim=35] time: 0.431186
[dim=34] time: 0.479041
[dim=33] time: 0.575652
[dim=32] time: 0.612257
[dim=31] time: 0.654623
[dim=30] time: 0.693452
[dim=29] time: 0.728081
[dim=28] time: 0.760618
[dim=27] time: 0.79353
[dim=26] time: 0.823384
[dim=25] time: 0.849577
[dim=24] time: 0.873014
[dim=23] time: 0.898943
[dim=22] time: 0.924847
[dim=21] Time of backward = 0.952458sec.
AIC: 521.071
k: 22
